db/data/16551206562577117857613753075854217.z3.out
-------------------
2500.068143190
